\* Maximise points kept *\
Maximize
OBJ: 132_REDWOOD_REGIONAL_PARK + 142_STABLE_CAFE + 156_THE_SLANTED_DOOR
 + 26_BLUE_BOTTLE_COFFEE + 31_BROWN_SUGAR_KITCHEN + 38_CHEESE_BOARD_PIZZA
Subject To
_C1: 132_REDWOOD_REGIONAL_PARK + 142_STABLE_CAFE + 156_THE_SLANTED_DOOR
 + 26_BLUE_BOTTLE_COFFEE + 31_BROWN_SUGAR_KITCHEN + 38_CHEESE_BOARD_PIZZA <= 2
Binaries
132_REDWOOD_REGIONAL_PARK
142_STABLE_CAFE
156_THE_SLANTED_DOOR
26_BLUE_BOTTLE_COFFEE
31_BROWN_SUGAR_KITCHEN
38_CHEESE_BOARD_PIZZA
End
